
  12    4
  10   10   10   10

   0   0   0   0   0   4 2 3 5 6 
   9  10  10  10  10   2 8 4 
   2  10  10  10  10   2 7 4 
   7  10  10  10  10   2 11 9 
   4  10  10  10  10   2 11 10 
   7  10  10  10  10   2 11 10 
   6  10  10  10  10   1 9 
   4  10  10  10  10   1 9 
   2  10  10  10  10   1 10 
   2  10  10  10  10   1 12
   3  10  10  10  10   1 12
   0   0   0   0   0   0 
